(set-info :smt-lib-version 2.6)
(set-logic LRA)
(set-info :source |
   Monniaux, David; Quantifier Elimination by Lazy Model Enumeration, CAV 2010
|)
(set-info :category "random")
; ./Mjollnir_examples/B4/formula_093.m
(set-info :status unsat)
(assert
 (exists ((|v11:0| Real) )(exists ((|v10:1| Real) )(exists ((|v9:2| Real) )(exists ((|v8:3| Real) )(forall ((|v7:4| Real) )(forall ((|v6:5| Real) )(forall ((|v5:6| Real) )(forall ((|v4:7| Real) )(exists ((|v3:8| Real) )(exists ((|v2:9| Real) )(exists ((|v1:10| Real) )(exists ((|v0:11| Real) )(let ((?x24 6))
(let ((?x606 (+ (+ (* 4 |v8:3|) (* (- 8) |v3:8|)) (* 16 |v3:8|))))
(let ((?x14 (- 8)))
(let ((?x135 11))
(let ((?x481 (* ?x135 |v10:1|)))
(let ((?x601 (+ (+ (+ (* (- 18) |v4:7|) (* 3 |v2:9|)) ?x481) (* 9 |v5:6|))))
(let ((?x169 8))
(let ((?x592 (+ (+ (* 2 |v9:2|) (* (- 3) |v3:8|)) (* (- 17) |v1:10|))))
(let ((?x144 10))
(let ((?x106 5))
(let ((?x107 (* ?x106 |v2:9|)))
(let ((?x512 (* ?x14 |v11:0|)))
(let ((?x587 (+ (+ (+ (* (- 2) |v7:4|) (* 7 |v3:8|)) ?x512) ?x107)))
(let (($x611 (or (and (<= ?x587 ?x144) (<= (+ ?x592 (* (- 17) |v10:1|)) ?x169)) (and (<= ?x601 ?x14) (<= (+ ?x606 (* 19 |v10:1|)) ?x24)))))
(let ((?x578 (+ (+ (* (- 12) |v1:10|) (* 19 |v9:2|)) (* 2 |v6:5|))))
(let ((?x164 (- 14)))
(let ((?x114 9))
(let ((?x343 (* ?x114 |v10:1|)))
(let ((?x573 (+ (+ (+ (* 0 |v5:6|) (* (- 13) |v6:5|)) ?x343) (* (- 6) |v3:8|))))
(let ((?x27 (- 11)))
(let ((?x45 (- 6)))
(let ((?x507 (* ?x45 |v5:6|)))
(let ((?x194 20))
(let ((?x498 (* ?x194 |v1:10|)))
(let (($x568 (<= (+ (+ (+ (* ?x27 |v4:7|) (* (- 16) |v3:8|)) ?x498) ?x507) ?x27)))
(let ((?x121 3))
(let ((?x79 (- 2)))
(let ((?x228 (* ?x79 |v0:11|)))
(let ((?x281 17))
(let ((?x552 (* ?x281 |v4:7|)))
(let ((?x562 (+ (+ (+ (* (- 17) |v4:7|) (* 0 |v8:3|)) ?x552) ?x228)))
(let (($x583 (and (and (<= ?x562 ?x121) $x568) (or (<= ?x573 ?x164) (<= (+ ?x578 (* (- 20) |v4:7|)) ?x135)))))
(let ((?x71 (- 13)))
(let ((?x553 (+ (+ (+ (* ?x106 |v10:1|) (* 12 |v11:0|)) (* ?x144 |v6:5|)) ?x552)))
(let ((?x154 (- 15)))
(let ((?x543 (+ (+ (* 7 |v7:4|) (* 18 |v0:11|)) (* (- 7) |v5:6|))))
(let ((?x437 1))
(let ((?x490 (* ?x71 |v1:10|)))
(let ((?x536 (+ (+ (+ (* ?x194 |v8:3|) (* ?x194 |v7:4|)) (* 18 |v6:5|)) ?x490)))
(let ((?x76 18))
(let ((?x122 (* ?x121 |v10:1|)))
(let ((?x530 (+ (+ (+ (* ?x154 |v7:4|) (* 13 |v9:2|)) (* ?x106 |v9:2|)) ?x122)))
(let (($x556 (and (and (<= ?x530 ?x76) (<= ?x536 ?x437)) (or (<= (+ ?x543 (* (- 17) |v5:6|)) ?x154) (<= ?x553 ?x71)))))
(let ((?x220 (- 18)))
(let (($x523 (<= (+ (+ (+ (* ?x144 |v2:9|) (* ?x114 |v8:3|)) |v2:9|) (* ?x135 |v5:6|)) ?x220)))
(let (($x524 (and (<= (+ (+ (+ (* ?x14 |v4:7|) ?x512) |v9:2|) (* ?x106 |v3:8|)) ?x106) $x523)))
(let ((?x117 (- 1)))
(let ((?x230 (* ?x135 |v1:10|)))
(let ((?x508 (+ (+ (+ (* 0 |v3:8|) (* 13 |v4:7|)) ?x230) ?x507)))
(let (($x503 (<= (+ (+ (+ (* ?x281 |v7:4|) ?x498) (* ?x24 |v8:3|)) (* ?x79 |v7:4|)) ?x144)))
(let ((?x206 (- 17)))
(let ((?x489 (+ (+ (* (- 5) |v3:8|) (* ?x27 |v11:0|)) (* (- 9) |v8:3|))))
(let ((?x10 16))
(let ((?x324 (* ?x10 |v10:1|)))
(let (($x484 (<= (+ (+ (+ (* ?x281 |v5:6|) (* (- 4) |v2:9|)) ?x481) ?x324) ?x437)))
(let ((?x473 (+ (+ (* ?x281 |v3:8|) (* (- 19) |v8:3|)) (* (- 12) |v10:1|))))
(let ((?x467 (+ (+ (+ (* ?x27 |v7:4|) (* (- 3) |v0:11|)) |v10:1|) (* ?x169 |v9:2|))))
(let (($x494 (or (and (<= ?x467 ?x164) (<= (+ ?x473 (* (- 12) |v0:11|)) ?x144)) (and $x484 (<= (+ ?x489 ?x490) ?x206)))))
(let ((?x102 0))
(let ((?x248 4))
(let ((?x360 (* ?x248 |v5:6|)))
(let (($x459 (<= (+ (+ (+ (* ?x79 |v8:3|) (* ?x194 |v2:9|)) (* ?x248 |v8:3|)) ?x360) ?x102)))
(let ((?x109 2))
(let ((?x218 (* ?x109 |v1:10|)))
(let ((?x452 (+ (+ (+ (* (- 20) |v5:6|) (* ?x114 |v4:7|)) ?x218) (* (- 20) |v3:8|))))
(let ((?x443 (+ (+ (* ?x169 |v0:11|) (* (- 20) |v8:3|)) (* 7 |v11:0|))))
(let ((?x233 (* ?x106 |v5:6|)))
(let ((?x436 (+ (+ (+ (* 13 |v3:8|) (* 14 |v1:10|)) ?x233) (* ?x109 |v0:11|))))
(let (($x461 (and (and (<= ?x436 ?x437) (<= (+ ?x443 (* ?x220 |v9:2|)) ?x248)) (and (<= ?x452 ?x14) $x459))))
(let ((?x59 7))
(let ((?x426 (+ (+ (+ (* ?x71 |v6:5|) (* ?x121 |v11:0|)) (* 13 |v10:1|)) (* 13 |v0:11|))))
(let ((?x420 (+ (+ (+ |v9:2| (* (- 3) |v10:1|)) (* (- 4) |v6:5|)) (* ?x121 |v8:3|))))
(let ((?x19 (- 5)))
(let ((?x25 (* ?x24 |v4:7|)))
(let ((?x413 (+ (+ (+ (* ?x24 |v11:0|) (* 13 |v3:8|)) (* ?x71 |v6:5|)) ?x25)))
(let ((?x388 13))
(let ((?x403 (* ?x388 |v9:2|)))
(let (($x407 (<= (+ (+ (+ (* ?x388 |v4:7|) (* ?x220 |v4:7|)) ?x403) (* ?x121 |v4:7|)) ?x24)))
(let ((?x35 (- 10)))
(let ((?x395 (* ?x106 |v3:8|)))
(let (($x397 (<= (+ (+ (+ (* ?x24 |v5:6|) (* ?x71 |v4:7|)) (* ?x106 |v6:5|)) ?x395) ?x35)))
(let (($x398 (and (<= (+ (+ (+ (* ?x27 |v5:6|) (* ?x102 |v4:7|)) ?x324) |v6:5|) ?x388) $x397)))
(let ((?x90 12))
(let ((?x379 (+ (+ (+ (* ?x76 |v11:0|) (* ?x106 |v11:0|)) (* ?x109 |v2:9|)) (* 14 |v3:8|))))
(let ((?x249 (* ?x248 |v11:0|)))
(let ((?x372 (+ (+ (+ (* ?x102 |v7:4|) (* (- 12) |v5:6|)) (* ?x35 |v10:1|)) ?x249)))
(let (($x430 (and (and (and (<= ?x372 ?x35) (<= ?x379 ?x90)) $x398) (or (and $x407 (<= ?x413 ?x19)) (and (<= ?x420 ?x154) (<= ?x426 ?x59))))))
(let (($x614 (and (and $x430 (and $x461 $x494)) (and (and (or (and $x503 (<= ?x508 ?x117)) $x524) $x556) (or $x583 $x611)))))
(let ((?x359 (+ (+ (* (- 12) |v3:8|) (* (- 9) |v6:5|)) (* ?x220 |v5:6|))))
(let ((?x351 (+ (+ (* ?x71 |v9:2|) (* (- 16) |v6:5|)) (* (- 7) |v4:7|))))
(let ((?x344 (+ (+ (+ (* ?x135 |v11:0|) (* ?x248 |v2:9|)) (* (- 3) |v11:0|)) ?x343)))
(let ((?x245 (- 4)))
(let ((?x126 (- 12)))
(let ((?x335 (* ?x126 |v1:10|)))
(let (($x337 (<= (+ (+ (+ ?x228 (* ?x19 |v10:1|)) (* (- 20) |v11:0|)) ?x335) ?x245)))
(let (($x364 (and (and $x337 (<= ?x344 ?x19)) (and (<= (+ ?x351 (* ?x169 |v6:5|)) ?x59) (<= (+ ?x359 ?x360) ?x114)))))
(let (($x328 (<= (+ (+ (+ (* ?x121 |v5:6|) (* ?x281 |v6:5|)) ?x324) (* ?x154 |v6:5|)) ?x14)))
(let ((?x32 19))
(let ((?x267 (- 20)))
(let ((?x318 (* ?x267 |v5:6|)))
(let ((?x319 (+ (+ (+ (* 14 |v10:1|) (* ?x194 |v3:8|)) (* ?x59 |v8:3|)) ?x318)))
(let ((?x308 (+ (+ (* 15 |v3:8|) (* ?x126 |v2:9|)) (* (- 9) |v2:9|))))
(let (($x304 (<= (+ (+ (+ (* ?x27 |v4:7|) (* (- 3) |v10:1|)) ?x233) |v7:4|) ?x10)))
(let (($x330 (and (and $x304 (<= (+ ?x308 (* (- 7) |v7:4|)) ?x114)) (and (<= ?x319 ?x32) $x328))))
(let ((?x274 (* ?x135 |v9:2|)))
(let (($x296 (<= (+ (+ (+ (* ?x14 |v1:10|) |v0:11|) (* 15 |v3:8|)) ?x274) ?x267)))
(let ((?x288 (+ (+ (* 14 |v7:4|) (* ?x135 |v6:5|)) (* (- 16) |v10:1|))))
(let (($x282 (<= (+ (+ (+ ?x274 (* ?x169 |v7:4|)) (* ?x19 |v2:9|)) (* ?x76 |v7:4|)) ?x281)))
(let ((?x271 (+ (+ (+ (* ?x194 |v9:2|) (* ?x117 |v2:9|)) (* ?x267 |v1:10|)) (* ?x126 |v11:0|))))
(let (($x298 (or (and (<= ?x271 ?x59) $x282) (and (<= (+ ?x288 (* 14 |v0:11|)) ?x35) $x296))))
(let ((?x260 (+ (+ (+ (* ?x35 |v0:11|) (* ?x245 |v9:2|)) (* 15 |v3:8|)) (* ?x45 |v7:4|))))
(let ((?x253 (+ (+ (+ (* ?x245 |v10:1|) ?x249) (* (- 16) |v1:10|)) (* ?x14 |v7:4|))))
(let ((?x241 (+ (+ (+ ?x233 (* (- 7) |v10:1|)) (* (- 16) |v2:9|)) (* 15 |v9:2|))))
(let ((?x185 (- 16)))
(let (($x243 (and (<= (+ (+ (+ (* ?x59 |v2:9|) (* ?x109 |v5:6|)) ?x228) ?x230) ?x185) (<= ?x241 ?x24))))
(let (($x366 (and (and (or $x243 (and (<= ?x253 ?x220) (<= ?x260 ?x90))) $x298) (and $x330 $x364))))
(let (($x221 (<= (+ (+ (+ (* ?x144 |v0:11|) (* ?x206 |v8:3|)) (* ?x164 |v4:7|)) ?x218) ?x220)))
(let ((?x210 (+ (+ (+ (* ?x114 |v7:4|) (* ?x27 |v6:5|)) (* ?x206 |v7:4|)) (* ?x76 |v5:6|))))
(let ((?x200 (+ (+ (+ (* ?x102 |v0:11|) (* ?x194 |v4:7|)) (* ?x79 |v10:1|)) (* ?x71 |v3:8|))))
(let ((?x189 (* ?x109 |v2:9|)))
(let (($x191 (<= (+ (+ (+ (* (- 3) |v5:6|) (* ?x185 |v1:10|)) |v5:6|) ?x189) ?x19)))
(let (($x180 (<= (+ (+ (+ |v0:11| (* ?x117 |v6:5|)) (* ?x35 |v0:11|)) (* ?x114 |v7:4|)) ?x114)))
(let ((?x173 (+ (+ (+ (* ?x164 |v10:1|) (* ?x79 |v8:3|)) (* ?x169 |v8:3|)) (* (- 19) |v9:2|))))
(let ((?x159 (* ?x121 |v11:0|)))
(let (($x161 (<= (+ (+ (+ (* ?x71 |v2:9|) (* ?x154 |v4:7|)) (* ?x109 |v9:2|)) ?x159) ?x27)))
(let ((?x150 (+ (+ (+ (* ?x24 |v8:3|) (* ?x144 |v10:1|)) (* ?x59 |v5:6|)) (* ?x79 |v9:2|))))
(let (($x224 (and (and (and (<= ?x150 ?x126) $x161) (and (<= ?x173 ?x27) $x180)) (or (and $x191 (<= ?x200 ?x144)) (and (<= ?x210 ?x10) $x221)))))
(let ((?x137 (+ (+ (+ (* ?x45 |v9:2|) (* ?x117 |v2:9|)) (* ?x79 |v3:8|)) (* ?x135 |v3:8|))))
(let (($x127 (<= (+ (+ (+ (* ?x114 |v0:11|) (* ?x117 |v6:5|)) ?x122) (* ?x59 |v4:7|)) ?x126)))
(let ((?x108 (+ (+ (+ (* (- 9) |v11:0|) (* ?x35 |v10:1|)) (* ?x102 |v5:6|)) ?x107)))
(let ((?x92 (+ (+ (+ (* ?x76 |v1:10|) (* ?x45 |v8:3|)) (* ?x76 |v4:7|)) (* ?x90 |v0:11|))))
(let ((?x77 (* ?x76 |v6:5|)))
(let ((?x78 (+ (+ (+ (* (- 3) |v10:1|) (* ?x45 |v4:7|)) (* ?x71 |v0:11|)) ?x77)))
(let ((?x60 (* ?x59 |v2:9|)))
(let ((?x57 (+ (+ (* ?x32 |v0:11|) (* (- 7) |v11:0|)) (* 14 |v11:0|))))
(let ((?x44 (+ (+ (+ (* ?x32 |v11:0|) (* ?x35 |v1:10|)) (* (- 19) |v4:7|)) (* (- 19) |v7:4|))))
(let (($x28 (<= (+ (+ (+ (* ?x10 |v2:9|) (* ?x14 |v9:2|)) (* ?x19 |v1:10|)) ?x25) ?x27)))
(let (($x82 (and (and $x28 (<= ?x44 ?x45)) (and (<= (+ ?x57 ?x60) ?x24) (<= ?x78 ?x79)))))
(let (($x141 (and $x82 (and (and (<= ?x92 ?x45) (<= ?x108 ?x109)) (and $x127 (<= ?x137 ?x106))))))
(and (and (and $x141 $x224) $x366) $x614)))))))))))))))))))))))))))))))))))))))))))))))))))))))))))))))))))))))))))))))))))))))))))))))))))))))))))))))))))))))))))))))))))))))))))))
)
)
)
)
)
)
)
)
)
)
)
)
(check-sat)
(exit)

